joueur/fichiers_cnf/map2.cnf
c map2.map
p cnf 54 229
-3 -4 0
-3 -5 0
-4 -5 0
-1 -2 0
-2 -5 0
-1 -4 0
-5 1 0
-4 2 0
-21 -22 0
-21 -23 0
-22 -23 0
-19 -20 0
-20 -23 0
-19 -22 0
-23 19 0
-22 20 0
-39 -40 0
-39 -41 0
-40 -41 0
-37 -38 0
-38 -41 0
-37 -40 0
-41 37 0
-40 38 0
-9 -10 0
-9 -11 0
-10 -11 0
-7 -8 0
-8 -11 0
-7 -10 0
-11 7 0
-10 8 0
-27 -28 0
-27 -29 0
-28 -29 0
-25 -26 0
-26 -29 0
-25 -28 0
-29 25 0
-28 26 0
-45 -46 0
-45 -47 0
-46 -47 0
-43 -44 0
-44 -47 0
-43 -46 0
-47 43 0
-46 44 0
-15 -16 0
-15 -17 0
-16 -17 0
-13 -14 0
-14 -17 0
-13 -16 0
-17 13 0
-16 14 0
-33 -34 0
-33 -35 0
-34 -35 0
-31 -32 0
-32 -35 0
-31 -34 0
-35 31 0
-34 32 0
-51 -52 0
-51 -53 0
-52 -53 0
-49 -50 0
-50 -53 0
-49 -52 0
-53 49 0
-52 50 0
-3 0
-4 0
-4 0
-5 0
-3 0
1 0
-2 0
-21 0
-9 0
-27 0
-22 0
-10 0
-28 0
-23 0
-11 0
-29 0
19 0
-20 0
7 0
-8 0
25 0
-28 0
-29 0
-27 0
-3 0
-21 0
-39 0
-9 0
-45 0
-15 0
-33 0
-51 0
-4 0
-22 0
-40 0
-10 0
-46 0
-16 0
-34 0
-52 0
-5 -23 0
-5 -41 0
-5 -11 0
-5 -47 0
-5 -17 0
-5 -35 0
-5 -53 0
-23 -41 0
-23 -11 0
-23 -47 0
-23 -17 0
-23 -35 0
-23 -53 0
-41 -11 0
-41 -47 0
-41 -17 0
-41 -35 0
-41 -53 0
-11 -47 0
-11 -17 0
-11 -35 0
-11 -53 0
-47 -17 0
-47 -35 0
-47 -53 0
-17 -35 0
-17 -53 0
-35 -53 0
5 23 41 11 47 17 35 53 0
37 0
-38 0
43 0
-44 0
13 0
-14 0
31 0
-32 0
49 0
-52 0
-53 0
-51 0
-27 0
-45 0
-33 0
-28 0
-46 0
-34 0
-29 0
-47 0
-34 0
-35 0
-33 0
-9 0
-27 0
-45 0
-15 0
-51 0
-10 0
-28 0
-46 0
-16 0
-52 0
-11 0
-29 0
-47 0
-17 0
-16 0
-17 0
-15 0
-9 0
-27 0
-33 0
-10 0
-28 0
-34 0
-11 0
-29 0
-46 0
-47 0
-45 0
-21 0
-39 0
-27 0
-33 0
-51 0
-22 0
-40 0
-28 0
-34 0
-52 0
-23 -41 0
-23 -29 0
-23 -35 0
-23 -53 0
-41 -29 0
-41 -35 0
-41 -53 0
-29 -35 0
-29 -53 0
-35 -53 0
-40 0
-41 0
-39 0
