joueur/fichiers_opb/map2.opb
* carte map2.map
+1 x1 +1 x19 +1 x37 +1 x7 +1 x25 +1 x43 +1 x13 +1 x31 +1 x49 = 0; * comptage total de T
+1 x2 +1 x20 +1 x38 +1 x8 +1 x26 +1 x44 +1 x14 +1 x32 +1 x50 = 1; * comptage total de S
+1 x3 +1 x21 +1 x39 +1 x9 +1 x27 +1 x45 +1 x15 +1 x33 +1 x51 = 0; * comptage total de C
+1 x5 +1 x23 +1 x41 +1 x11 +1 x29 +1 x47 +1 x17 +1 x35 +1 x53 = 9; * comptage total de s
+1 x6 +1 x24 +1 x42 +1 x12 +1 x30 +1 x48 +1 x18 +1 x36 +1 x54 = 0; * comptage total de l
+1 x1 +1 x2 +1 x3 +1 x4 = 1; * unicite animal case (0,0)
+1 x5 +1 x6 = 1; * unicite type terrain case (0,0)
+1 ~x2 +1 x5 >= 1; * non requin ou eau (0,0)
+1 ~x1 +1 x6 >= 1; * non tigre ou terre (0,0)
+1 x19 +1 x20 +1 x21 +1 x22 = 1; * unicite animal case (0,1)
+1 x23 +1 x24 = 1; * unicite type terrain case (0,1)
+1 ~x20 +1 x23 >= 1; * non requin ou eau (0,1)
+1 ~x19 +1 x24 >= 1; * non tigre ou terre (0,1)
+1 x37 +1 x38 +1 x39 +1 x40 = 1; * unicite animal case (0,2)
+1 x41 +1 x42 = 1; * unicite type terrain case (0,2)
+1 ~x38 +1 x41 >= 1; * non requin ou eau (0,2)
+1 ~x37 +1 x42 >= 1; * non tigre ou terre (0,2)
+1 x7 +1 x8 +1 x9 +1 x10 = 1; * unicite animal case (1,0)
+1 x11 +1 x12 = 1; * unicite type terrain case (1,0)
+1 ~x8 +1 x11 >= 1; * non requin ou eau (1,0)
+1 ~x7 +1 x12 >= 1; * non tigre ou terre (1,0)
+1 x25 +1 x26 +1 x27 +1 x28 = 1; * unicite animal case (1,1)
+1 x29 +1 x30 = 1; * unicite type terrain case (1,1)
+1 ~x26 +1 x29 >= 1; * non requin ou eau (1,1)
+1 ~x25 +1 x30 >= 1; * non tigre ou terre (1,1)
+1 x43 +1 x44 +1 x45 +1 x46 = 1; * unicite animal case (1,2)
+1 x47 +1 x48 = 1; * unicite type terrain case (1,2)
+1 ~x44 +1 x47 >= 1; * non requin ou eau (1,2)
+1 ~x43 +1 x48 >= 1; * non tigre ou terre (1,2)
+1 x13 +1 x14 +1 x15 +1 x16 = 1; * unicite animal case (2,0)
+1 x17 +1 x18 = 1; * unicite type terrain case (2,0)
+1 ~x14 +1 x17 >= 1; * non requin ou eau (2,0)
+1 ~x13 +1 x18 >= 1; * non tigre ou terre (2,0)
+1 x31 +1 x32 +1 x33 +1 x34 = 1; * unicite animal case (2,1)
+1 x35 +1 x36 = 1; * unicite type terrain case (2,1)
+1 ~x32 +1 x35 >= 1; * non requin ou eau (2,1)
+1 ~x31 +1 x36 >= 1; * non tigre ou terre (2,1)
+1 x49 +1 x50 +1 x51 +1 x52 = 1; * unicite animal case (2,2)
+1 x53 +1 x54 = 1; * unicite type terrain case (2,2)
+1 ~x50 +1 x53 >= 1; * non requin ou eau (2,2)
+1 ~x49 +1 x54 >= 1; * non tigre ou terre (2,2)
+1 x4 = 1; * case de depart (0,0)
+1 x4 = 1; * R sur la case 0,0
+1 x1 +1 x2 +1 x3  = 0; * les autres animaux ne sont pas sur la case 0,0
+1 x5 = 1; * case sea  (0,0)
+1 x6 = 0; * case non land  (0,0)
+1 x19 +1 x7 +1 x25 = 0; * voisinage animal T de la case (0,0)
+1 x20 +1 x8 +1 x26 = 0; * voisinage animal S de la case (0,0)
+1 x21 +1 x9 +1 x27 = 0; * voisinage animal C de la case (0,0)
+1 x23 = 1; * case sea  (0,1)
+1 x24 = 0; * case non land  (0,1)
+1 x11 = 1; * case sea  (1,0)
+1 x12 = 0; * case non land  (1,0)
+1 x29 = 1; * case sea  (1,1)
+1 x30 = 0; * case non land  (1,1)
+1 x28 = 1; * R sur la case 1,1
+1 x25 +1 x26 +1 x27  = 0; * les autres animaux ne sont pas sur la case 1,1
+1 x1 +1 x19 +1 x37 +1 x7 +1 x43 +1 x13 +1 x31 +1 x49 = 0; * voisinage animal T de la case (1,1)
+1 x2 +1 x20 +1 x38 +1 x8 +1 x44 +1 x14 +1 x32 +1 x50 = 1; * voisinage animal S de la case (1,1)
+1 x3 +1 x21 +1 x39 +1 x9 +1 x45 +1 x15 +1 x33 +1 x51 = 0; * voisinage animal C de la case (1,1)
+1 x41 = 1; * case sea  (0,2)
+1 x42 = 0; * case non land  (0,2)
+1 x47 = 1; * case sea  (1,2)
+1 x48 = 0; * case non land  (1,2)
+1 x17 = 1; * case sea  (2,0)
+1 x18 = 0; * case non land  (2,0)
+1 x35 = 1; * case sea  (2,1)
+1 x36 = 0; * case non land  (2,1)
+1 x53 = 1; * case sea  (2,2)
+1 x54 = 0; * case non land  (2,2)
+1 x10 = 1; * R sur la case 1,0
+1 x7 +1 x8 +1 x9  = 0; * les autres animaux ne sont pas sur la case 1,0
+1 x1 +1 x19 +1 x25 +1 x13 +1 x31 = 0; * voisinage animal T de la case (1,0)
+1 x2 +1 x20 +1 x26 +1 x14 +1 x32 = 0; * voisinage animal S de la case (1,0)
+1 x3 +1 x21 +1 x27 +1 x15 +1 x33 = 0; * voisinage animal C de la case (1,0)
+1 x34 = 1; * R sur la case 2,1
+1 x31 +1 x32 +1 x33  = 0; * les autres animaux ne sont pas sur la case 2,1
+1 x7 +1 x25 +1 x43 +1 x13 +1 x49 = 0; * voisinage animal T de la case (2,1)
+1 x8 +1 x26 +1 x44 +1 x14 +1 x50 = 0; * voisinage animal S de la case (2,1)
+1 x9 +1 x27 +1 x45 +1 x15 +1 x51 = 0; * voisinage animal C de la case (2,1)
+1 x52 = 1; * R sur la case 2,2
+1 x49 +1 x50 +1 x51  = 0; * les autres animaux ne sont pas sur la case 2,2
+1 x25 +1 x43 +1 x31 = 0; * voisinage animal T de la case (2,2)
+1 x26 +1 x44 +1 x32 = 0; * voisinage animal S de la case (2,2)
+1 x27 +1 x45 +1 x33 = 0; * voisinage animal C de la case (2,2)
+1 x16 = 1; * R sur la case 2,0
+1 x13 +1 x14 +1 x15  = 0; * les autres animaux ne sont pas sur la case 2,0
+1 x7 +1 x25 +1 x31 = 0; * voisinage animal T de la case (2,0)
+1 x8 +1 x26 +1 x32 = 0; * voisinage animal S de la case (2,0)
+1 x9 +1 x27 +1 x33 = 0; * voisinage animal C de la case (2,0)
+1 x46 = 1; * R sur la case 1,2
+1 x43 +1 x44 +1 x45  = 0; * les autres animaux ne sont pas sur la case 1,2
+1 x19 +1 x37 +1 x25 +1 x31 +1 x49 = 0; * voisinage animal T de la case (1,2)
+1 x20 +1 x38 +1 x26 +1 x32 +1 x50 = 1; * voisinage animal S de la case (1,2)
+1 x21 +1 x39 +1 x27 +1 x33 +1 x51 = 0; * voisinage animal C de la case (1,2)
+1 x38 = 1; * S sur la case 0,2
+1 x37 +1 x39 +1 x40  = 0; * les autres animaux ne sont pas sur la case 0,2
+1 x22 = 1; * R sur la case 0,1
+1 x19 +1 x20 +1 x21  = 0; * les autres animaux ne sont pas sur la case 0,1
+1 x1 +1 x37 +1 x7 +1 x25 +1 x43 = 0; * voisinage animal T de la case (0,1)
+1 x2 +1 x38 +1 x8 +1 x26 +1 x44 = 1; * voisinage animal S de la case (0,1)
+1 x3 +1 x39 +1 x9 +1 x27 +1 x45 = 0; * voisinage animal C de la case (0,1)
